certificates/rado_a15_c122_N30.drat
7 1 8 0
8 -29 -30 0
-29 -30 0
d 8 -29 -30 0
-7 -8 -1 0
10 -30 0
-30 0
-10 29 0
10 29 0
d 10 1 29 0
29 0
10 0
-1 0
-8 0
3 0
7 0
6 0
28 0
-20 0
-23 0
-24 0
-27 0
-12 0
-11 0
22 0
18 0
25 0
21 0
26 0
14 0
9 0
13 0
0
